CPXPARAM_TimeLimit                               600
CPXPARAM_WorkMem                                 4096
CPXPARAM_Threads                                 1
Found incumbent of value 0,000000 after 0,00 sec. (0,01 ticks)
Tried aggregator 1 time.
MIP Presolve eliminated 18 rows and 113 columns.
Reduced MIP has 32 rows, 77 columns, and 136 nonzeros.
Reduced MIP has 77 binaries, 0 generals, 0 SOSs, and 0 indicators.
Presolve time = 0,00 sec. (0,33 ticks)
Probing time = 0,00 sec. (0,02 ticks)
Tried aggregator 1 time.
MIP Presolve eliminated 25 rows and 60 columns.
Reduced MIP has 7 rows, 17 columns, and 31 nonzeros.
Reduced MIP has 17 binaries, 0 generals, 0 SOSs, and 0 indicators.
Presolve time = 0,00 sec. (0,05 ticks)
Probing time = 0,00 sec. (0,00 ticks)
Tried aggregator 1 time.
Reduced MIP has 7 rows, 17 columns, and 31 nonzeros.
Reduced MIP has 17 binaries, 0 generals, 0 SOSs, and 0 indicators.
Presolve time = 0,00 sec. (0,03 ticks)
Probing time = 0,00 sec. (0,00 ticks)
Clique table members: 6.
MIP emphasis: balance optimality and feasibility.
MIP search method: dynamic search.
Parallel mode: none, using 1 thread.
Root relaxation solution time = 0,00 sec. (0,01 ticks)

        Nodes                                         Cuts/
   Node  Left     Objective  IInf  Best Integer    Best Bound    ItCnt     Gap

*     0+    0                          403,0000      615,0000            52,61%
      0     0      523,0000     2      403,0000      523,0000        8   29,78%
*     0+    0                          514,0000      523,0000             1,75%
*     0     0      integral     0      523,0000       Cuts: 2       10    0,00%
      0     0        cutoff            523,0000      523,0000       10    0,00%
Elapsed time = 0,01 sec. (4,87 ticks, tree = 0,01 MB, solutions = 4)

GUB cover cuts applied:  1

Root node processing (before b&c):
  Real time             =    0,01 sec. (4,88 ticks)
Sequential b&c:
  Real time             =    0,00 sec. (0,00 ticks)
                          ------------
Total (root+branch&cut) =    0,01 sec. (4,88 ticks)
